Minimize
	value: tt

Subject to
s_1_12 = 1
tt + 1000 s_1_1 > 0.0
tt - t_1_1 - 1000.000000 s_1_1  > -998.047999
tt + 1000 s_2_1 > 0.0
tt - t_2_1 - 1000.000000 s_2_1  > -995.980702
tt + 1000 s_1_2 > 0.0
tt - t_1_2 - 1000.000000 s_1_2  > -993.649978
tt + 1000 s_2_2 > 0.0
tt - t_2_2 - 1000.000000 s_2_2  > -994.298176
tt + 1000 s_1_3 > 0.0
tt - t_1_3 - 1000.000000 s_1_3  > -993.599153
tt + 1000 s_2_3 > 0.0
tt - t_2_3 - 1000.000000 s_2_3  > -994.308094
tt + 1000 s_1_4 > 0.0
tt - t_1_4 - 1000.000000 s_1_4  > -990.469724
tt + 1000 s_2_4 > 0.0
tt - t_2_4 - 1000.000000 s_2_4  > -992.301238
tt + 1000 s_1_5 > 0.0
tt - t_1_5 - 1000.000000 s_1_5  > -990.334797
tt + 1000 s_2_5 > 0.0
tt - t_2_5 - 1000.000000 s_2_5  > -992.254042
tt + 1000 s_1_6 > 0.0
tt - t_1_6 - 1000.000000 s_1_6  > -991.975321
tt + 1000 s_2_6 > 0.0
tt - t_2_6 - 1000.000000 s_2_6  > -992.168770
tt + 1000 s_1_7 > 0.0
tt - t_1_7 - 1000.000000 s_1_7  > -992.707201
tt + 1000 s_2_7 > 0.0
tt - t_2_7 - 1000.000000 s_2_7  > -992.066854
tt + 1000 s_1_8 > 0.0
tt - t_1_8 - 1000.000000 s_1_8  > -992.654022
tt + 1000 s_2_8 > 0.0
tt - t_2_8 - 1000.000000 s_2_8  > -991.833610
tt + 1000 s_1_9 > 0.0
tt - t_1_9 - 1000.000000 s_1_9  > -987.471477
tt + 1000 s_2_9 > 0.0
tt - t_2_9 - 1000.000000 s_2_9  > -988.374280
tt + 1000 s_1_10 > 0.0
tt - t_1_10 - 1000.000000 s_1_10  > -991.908339
tt + 1000 s_2_10 > 0.0
tt - t_2_10 - 1000.000000 s_2_10  > -992.284480
tt + 1000 s_1_11 > 0.0
tt - t_1_11 - 1000.000000 s_1_11  > -988.361717
tt + 1000 s_2_11 > 0.0
tt - t_2_11 - 1000.000000 s_2_11  > -988.596922
tt + 1000 s_1_12 > 0.0
tt - t_1_12 - 1000.000000 s_1_12  > -999.430546
tt + 1000 s_2_12 > 0.0
tt - t_2_12 - 1000.000000 s_2_12  > -997.871240
s_1_1 + s_2_1 = 1
s_1_2 + s_2_2 = 1
s_1_3 + s_2_3 = 1
s_1_4 + s_2_4 = 1
s_1_5 + s_2_5 = 1
s_1_6 + s_2_6 = 1
s_1_7 + s_2_7 = 1
s_1_8 + s_2_8 = 1
s_1_9 + s_2_9 = 1
s_1_10 + s_2_10 = 1
s_1_11 + s_2_11 = 1
s_1_12 + s_2_12 = 1
s_1_1 + s_1_2 + 1000 r_1_1_2 >= 2
- s_1_1 - s_1_2 - 1000 r_1_1_2 >= -1001
t_1_1 - t_1_2 - 1000.000000 u_1_1_2 - 0.000000 s_1_2  + 2000.000000 r_1_1_2 > -993.649978
s_2_1 + s_2_2 + 1000 r_2_1_2 >= 2
- s_2_1 - s_2_2 - 1000 r_2_1_2 >= -1001
t_2_1 - t_2_2 - 1000.000000 u_2_1_2 - 0.000000 s_2_2  + 2000.000000 r_2_1_2 > -994.298176
s_1_1 + s_1_3 + 1000 r_1_1_3 >= 2
- s_1_1 - s_1_3 - 1000 r_1_1_3 >= -1001
t_1_1 - t_1_3 - 1000.000000 u_1_1_3 - 0.000000 s_1_3  + 2000.000000 r_1_1_3 > -993.599153
s_2_1 + s_2_3 + 1000 r_2_1_3 >= 2
- s_2_1 - s_2_3 - 1000 r_2_1_3 >= -1001
t_2_1 - t_2_3 - 1000.000000 u_2_1_3 - 0.000000 s_2_3  + 2000.000000 r_2_1_3 > -994.308094
s_1_1 + s_1_4 + 1000 r_1_1_4 >= 2
- s_1_1 - s_1_4 - 1000 r_1_1_4 >= -1001
t_1_1 - t_1_4 - 1000.000000 u_1_1_4 - 0.000000 s_1_4  + 2000.000000 r_1_1_4 > -990.469724
s_2_1 + s_2_4 + 1000 r_2_1_4 >= 2
- s_2_1 - s_2_4 - 1000 r_2_1_4 >= -1001
t_2_1 - t_2_4 - 1000.000000 u_2_1_4 - 0.000000 s_2_4  + 2000.000000 r_2_1_4 > -992.301238
t_1_5 - t_1_1 - 1000.000000 s_1_1  > -998.047999
t_1_5 - t_2_1 - 1000.000000 s_2_1  > -995.980702
t_2_5 - t_1_1 - 1000.000000 s_1_1  > -998.047999
t_2_5 - t_2_1 - 1000.000000 s_2_1  > -995.980702
s_1_1 + s_1_6 + 1000 r_1_1_6 >= 2
- s_1_1 - s_1_6 - 1000 r_1_1_6 >= -1001
t_1_1 - t_1_6 - 1000.000000 u_1_1_6 - 0.000000 s_1_6  + 2000.000000 r_1_1_6 > -991.975321
s_2_1 + s_2_6 + 1000 r_2_1_6 >= 2
- s_2_1 - s_2_6 - 1000 r_2_1_6 >= -1001
t_2_1 - t_2_6 - 1000.000000 u_2_1_6 - 0.000000 s_2_6  + 2000.000000 r_2_1_6 > -992.168770
s_1_1 + s_1_7 + 1000 r_1_1_7 >= 2
- s_1_1 - s_1_7 - 1000 r_1_1_7 >= -1001
t_1_1 - t_1_7 - 1000.000000 u_1_1_7 - 0.000000 s_1_7  + 2000.000000 r_1_1_7 > -992.707201
s_2_1 + s_2_7 + 1000 r_2_1_7 >= 2
- s_2_1 - s_2_7 - 1000 r_2_1_7 >= -1001
t_2_1 - t_2_7 - 1000.000000 u_2_1_7 - 0.000000 s_2_7  + 2000.000000 r_2_1_7 > -992.066854
s_1_1 + s_1_8 + 1000 r_1_1_8 >= 2
- s_1_1 - s_1_8 - 1000 r_1_1_8 >= -1001
t_1_1 - t_1_8 - 1000.000000 u_1_1_8 - 0.000000 s_1_8  + 2000.000000 r_1_1_8 > -992.654022
s_2_1 + s_2_8 + 1000 r_2_1_8 >= 2
- s_2_1 - s_2_8 - 1000 r_2_1_8 >= -1001
t_2_1 - t_2_8 - 1000.000000 u_2_1_8 - 0.000000 s_2_8  + 2000.000000 r_2_1_8 > -991.833610
s_1_1 + s_1_9 + 1000 r_1_1_9 >= 2
- s_1_1 - s_1_9 - 1000 r_1_1_9 >= -1001
t_1_1 - t_1_9 - 1000.000000 u_1_1_9 - 0.000000 s_1_9  + 2000.000000 r_1_1_9 > -987.471477
s_2_1 + s_2_9 + 1000 r_2_1_9 >= 2
- s_2_1 - s_2_9 - 1000 r_2_1_9 >= -1001
t_2_1 - t_2_9 - 1000.000000 u_2_1_9 - 0.000000 s_2_9  + 2000.000000 r_2_1_9 > -988.374280
s_1_1 + s_1_10 + 1000 r_1_1_10 >= 2
- s_1_1 - s_1_10 - 1000 r_1_1_10 >= -1001
t_1_1 - t_1_10 - 1000.000000 u_1_1_10 - 0.000000 s_1_10  + 2000.000000 r_1_1_10 > -991.908339
s_2_1 + s_2_10 + 1000 r_2_1_10 >= 2
- s_2_1 - s_2_10 - 1000 r_2_1_10 >= -1001
t_2_1 - t_2_10 - 1000.000000 u_2_1_10 - 0.000000 s_2_10  + 2000.000000 r_2_1_10 > -992.284480
s_1_1 + s_1_11 + 1000 r_1_1_11 >= 2
- s_1_1 - s_1_11 - 1000 r_1_1_11 >= -1001
t_1_1 - t_1_11 - 1000.000000 u_1_1_11 - 0.000000 s_1_11  + 2000.000000 r_1_1_11 > -988.361717
s_2_1 + s_2_11 + 1000 r_2_1_11 >= 2
- s_2_1 - s_2_11 - 1000 r_2_1_11 >= -1001
t_2_1 - t_2_11 - 1000.000000 u_2_1_11 - 0.000000 s_2_11  + 2000.000000 r_2_1_11 > -988.596922
s_1_2 + s_1_1 + 1000 r_1_1_2 >= 2
- s_1_2 - s_1_1 - 1000 r_1_1_2 >= -1001
t_1_2 - t_1_1 + 1000.000000 u_1_1_2 - 0.000000 s_1_1  + 2000.000000 r_1_1_2 > 1.952001
s_2_2 + s_2_1 + 1000 r_2_1_2 >= 2
- s_2_2 - s_2_1 - 1000 r_2_1_2 >= -1001
t_2_2 - t_2_1 + 1000.000000 u_2_1_2 - 0.000000 s_2_1  + 2000.000000 r_2_1_2 > 4.019298
s_1_2 + s_1_3 + 1000 r_1_2_3 >= 2
- s_1_2 - s_1_3 - 1000 r_1_2_3 >= -1001
t_1_2 - t_1_3 - 1000.000000 u_1_2_3 - 0.000000 s_1_3  + 2000.000000 r_1_2_3 > -993.599153
s_2_2 + s_2_3 + 1000 r_2_2_3 >= 2
- s_2_2 - s_2_3 - 1000 r_2_2_3 >= -1001
t_2_2 - t_2_3 - 1000.000000 u_2_2_3 - 0.000000 s_2_3  + 2000.000000 r_2_2_3 > -994.308094
s_1_2 + s_1_4 + 1000 r_1_2_4 >= 2
- s_1_2 - s_1_4 - 1000 r_1_2_4 >= -1001
t_1_2 - t_1_4 - 1000.000000 u_1_2_4 - 0.000000 s_1_4  + 2000.000000 r_1_2_4 > -990.469724
s_2_2 + s_2_4 + 1000 r_2_2_4 >= 2
- s_2_2 - s_2_4 - 1000 r_2_2_4 >= -1001
t_2_2 - t_2_4 - 1000.000000 u_2_2_4 - 0.000000 s_2_4  + 2000.000000 r_2_2_4 > -992.301238
s_1_2 + s_1_5 + 1000 r_1_2_5 >= 2
- s_1_2 - s_1_5 - 1000 r_1_2_5 >= -1001
t_1_2 - t_1_5 - 1000.000000 u_1_2_5 - 0.000000 s_1_5  + 2000.000000 r_1_2_5 > -990.334797
s_2_2 + s_2_5 + 1000 r_2_2_5 >= 2
- s_2_2 - s_2_5 - 1000 r_2_2_5 >= -1001
t_2_2 - t_2_5 - 1000.000000 u_2_2_5 - 0.000000 s_2_5  + 2000.000000 r_2_2_5 > -992.254042
t_1_6 - t_1_2 - 1000.000000 s_1_2  > -993.649978
t_1_6 - t_2_2 - 1000.000000 s_2_2  > -994.298176
t_2_6 - t_1_2 - 1000.000000 s_1_2  > -993.649978
t_2_6 - t_2_2 - 1000.000000 s_2_2  > -994.298176
s_1_2 + s_1_7 + 1000 r_1_2_7 >= 2
- s_1_2 - s_1_7 - 1000 r_1_2_7 >= -1001
t_1_2 - t_1_7 - 1000.000000 u_1_2_7 - 0.000000 s_1_7  + 2000.000000 r_1_2_7 > -992.707201
s_2_2 + s_2_7 + 1000 r_2_2_7 >= 2
- s_2_2 - s_2_7 - 1000 r_2_2_7 >= -1001
t_2_2 - t_2_7 - 1000.000000 u_2_2_7 - 0.000000 s_2_7  + 2000.000000 r_2_2_7 > -992.066854
s_1_2 + s_1_9 + 1000 r_1_2_9 >= 2
- s_1_2 - s_1_9 - 1000 r_1_2_9 >= -1001
t_1_2 - t_1_9 - 1000.000000 u_1_2_9 - 0.000000 s_1_9  + 2000.000000 r_1_2_9 > -987.471477
s_2_2 + s_2_9 + 1000 r_2_2_9 >= 2
- s_2_2 - s_2_9 - 1000 r_2_2_9 >= -1001
t_2_2 - t_2_9 - 1000.000000 u_2_2_9 - 0.000000 s_2_9  + 2000.000000 r_2_2_9 > -988.374280
s_1_3 + s_1_1 + 1000 r_1_1_3 >= 2
- s_1_3 - s_1_1 - 1000 r_1_1_3 >= -1001
t_1_3 - t_1_1 + 1000.000000 u_1_1_3 - 0.000000 s_1_1  + 2000.000000 r_1_1_3 > 1.952001
s_2_3 + s_2_1 + 1000 r_2_1_3 >= 2
- s_2_3 - s_2_1 - 1000 r_2_1_3 >= -1001
t_2_3 - t_2_1 + 1000.000000 u_2_1_3 - 0.000000 s_2_1  + 2000.000000 r_2_1_3 > 4.019298
s_1_3 + s_1_2 + 1000 r_1_2_3 >= 2
- s_1_3 - s_1_2 - 1000 r_1_2_3 >= -1001
t_1_3 - t_1_2 + 1000.000000 u_1_2_3 - 0.000000 s_1_2  + 2000.000000 r_1_2_3 > 6.350022
s_2_3 + s_2_2 + 1000 r_2_2_3 >= 2
- s_2_3 - s_2_2 - 1000 r_2_2_3 >= -1001
t_2_3 - t_2_2 + 1000.000000 u_2_2_3 - 0.000000 s_2_2  + 2000.000000 r_2_2_3 > 5.701824
s_1_3 + s_1_4 + 1000 r_1_3_4 >= 2
- s_1_3 - s_1_4 - 1000 r_1_3_4 >= -1001
t_1_3 - t_1_4 - 1000.000000 u_1_3_4 - 0.000000 s_1_4  + 2000.000000 r_1_3_4 > -990.469724
s_2_3 + s_2_4 + 1000 r_2_3_4 >= 2
- s_2_3 - s_2_4 - 1000 r_2_3_4 >= -1001
t_2_3 - t_2_4 - 1000.000000 u_2_3_4 - 0.000000 s_2_4  + 2000.000000 r_2_3_4 > -992.301238
s_1_3 + s_1_5 + 1000 r_1_3_5 >= 2
- s_1_3 - s_1_5 - 1000 r_1_3_5 >= -1001
t_1_3 - t_1_5 - 1000.000000 u_1_3_5 - 0.000000 s_1_5  + 2000.000000 r_1_3_5 > -990.334797
s_2_3 + s_2_5 + 1000 r_2_3_5 >= 2
- s_2_3 - s_2_5 - 1000 r_2_3_5 >= -1001
t_2_3 - t_2_5 - 1000.000000 u_2_3_5 - 0.000000 s_2_5  + 2000.000000 r_2_3_5 > -992.254042
s_1_3 + s_1_6 + 1000 r_1_3_6 >= 2
- s_1_3 - s_1_6 - 1000 r_1_3_6 >= -1001
t_1_3 - t_1_6 - 1000.000000 u_1_3_6 - 0.000000 s_1_6  + 2000.000000 r_1_3_6 > -991.975321
s_2_3 + s_2_6 + 1000 r_2_3_6 >= 2
- s_2_3 - s_2_6 - 1000 r_2_3_6 >= -1001
t_2_3 - t_2_6 - 1000.000000 u_2_3_6 - 0.000000 s_2_6  + 2000.000000 r_2_3_6 > -992.168770
t_1_7 - t_1_3 - 1000.000000 s_1_3  > -993.599153
t_1_7 - t_2_3 - 1000.000000 s_2_3  > -994.308094
t_2_7 - t_1_3 - 1000.000000 s_1_3  > -993.599153
t_2_7 - t_2_3 - 1000.000000 s_2_3  > -994.308094
s_1_3 + s_1_8 + 1000 r_1_3_8 >= 2
- s_1_3 - s_1_8 - 1000 r_1_3_8 >= -1001
t_1_3 - t_1_8 - 1000.000000 u_1_3_8 - 0.000000 s_1_8  + 2000.000000 r_1_3_8 > -992.654022
s_2_3 + s_2_8 + 1000 r_2_3_8 >= 2
- s_2_3 - s_2_8 - 1000 r_2_3_8 >= -1001
t_2_3 - t_2_8 - 1000.000000 u_2_3_8 - 0.000000 s_2_8  + 2000.000000 r_2_3_8 > -991.833610
s_1_3 + s_1_10 + 1000 r_1_3_10 >= 2
- s_1_3 - s_1_10 - 1000 r_1_3_10 >= -1001
t_1_3 - t_1_10 - 1000.000000 u_1_3_10 - 0.000000 s_1_10  + 2000.000000 r_1_3_10 > -991.908339
s_2_3 + s_2_10 + 1000 r_2_3_10 >= 2
- s_2_3 - s_2_10 - 1000 r_2_3_10 >= -1001
t_2_3 - t_2_10 - 1000.000000 u_2_3_10 - 0.000000 s_2_10  + 2000.000000 r_2_3_10 > -992.284480
s_1_3 + s_1_11 + 1000 r_1_3_11 >= 2
- s_1_3 - s_1_11 - 1000 r_1_3_11 >= -1001
t_1_3 - t_1_11 - 1000.000000 u_1_3_11 - 0.000000 s_1_11  + 2000.000000 r_1_3_11 > -988.361717
s_2_3 + s_2_11 + 1000 r_2_3_11 >= 2
- s_2_3 - s_2_11 - 1000 r_2_3_11 >= -1001
t_2_3 - t_2_11 - 1000.000000 u_2_3_11 - 0.000000 s_2_11  + 2000.000000 r_2_3_11 > -988.596922
s_1_4 + s_1_1 + 1000 r_1_1_4 >= 2
- s_1_4 - s_1_1 - 1000 r_1_1_4 >= -1001
t_1_4 - t_1_1 + 1000.000000 u_1_1_4 - 0.000000 s_1_1  + 2000.000000 r_1_1_4 > 1.952001
s_2_4 + s_2_1 + 1000 r_2_1_4 >= 2
- s_2_4 - s_2_1 - 1000 r_2_1_4 >= -1001
t_2_4 - t_2_1 + 1000.000000 u_2_1_4 - 0.000000 s_2_1  + 2000.000000 r_2_1_4 > 4.019298
s_1_4 + s_1_2 + 1000 r_1_2_4 >= 2
- s_1_4 - s_1_2 - 1000 r_1_2_4 >= -1001
t_1_4 - t_1_2 + 1000.000000 u_1_2_4 - 0.000000 s_1_2  + 2000.000000 r_1_2_4 > 6.350022
s_2_4 + s_2_2 + 1000 r_2_2_4 >= 2
- s_2_4 - s_2_2 - 1000 r_2_2_4 >= -1001
t_2_4 - t_2_2 + 1000.000000 u_2_2_4 - 0.000000 s_2_2  + 2000.000000 r_2_2_4 > 5.701824
s_1_4 + s_1_3 + 1000 r_1_3_4 >= 2
- s_1_4 - s_1_3 - 1000 r_1_3_4 >= -1001
t_1_4 - t_1_3 + 1000.000000 u_1_3_4 - 0.000000 s_1_3  + 2000.000000 r_1_3_4 > 6.400847
s_2_4 + s_2_3 + 1000 r_2_3_4 >= 2
- s_2_4 - s_2_3 - 1000 r_2_3_4 >= -1001
t_2_4 - t_2_3 + 1000.000000 u_2_3_4 - 0.000000 s_2_3  + 2000.000000 r_2_3_4 > 5.691906
s_1_4 + s_1_5 + 1000 r_1_4_5 >= 2
- s_1_4 - s_1_5 - 1000 r_1_4_5 >= -1001
t_1_4 - t_1_5 - 1000.000000 u_1_4_5 - 0.000000 s_1_5  + 2000.000000 r_1_4_5 > -990.334797
s_2_4 + s_2_5 + 1000 r_2_4_5 >= 2
- s_2_4 - s_2_5 - 1000 r_2_4_5 >= -1001
t_2_4 - t_2_5 - 1000.000000 u_2_4_5 - 0.000000 s_2_5  + 2000.000000 r_2_4_5 > -992.254042
s_1_4 + s_1_6 + 1000 r_1_4_6 >= 2
- s_1_4 - s_1_6 - 1000 r_1_4_6 >= -1001
t_1_4 - t_1_6 - 1000.000000 u_1_4_6 - 0.000000 s_1_6  + 2000.000000 r_1_4_6 > -991.975321
s_2_4 + s_2_6 + 1000 r_2_4_6 >= 2
- s_2_4 - s_2_6 - 1000 r_2_4_6 >= -1001
t_2_4 - t_2_6 - 1000.000000 u_2_4_6 - 0.000000 s_2_6  + 2000.000000 r_2_4_6 > -992.168770
s_1_4 + s_1_7 + 1000 r_1_4_7 >= 2
- s_1_4 - s_1_7 - 1000 r_1_4_7 >= -1001
t_1_4 - t_1_7 - 1000.000000 u_1_4_7 - 0.000000 s_1_7  + 2000.000000 r_1_4_7 > -992.707201
s_2_4 + s_2_7 + 1000 r_2_4_7 >= 2
- s_2_4 - s_2_7 - 1000 r_2_4_7 >= -1001
t_2_4 - t_2_7 - 1000.000000 u_2_4_7 - 0.000000 s_2_7  + 2000.000000 r_2_4_7 > -992.066854
s_1_4 + s_1_8 + 1000 r_1_4_8 >= 2
- s_1_4 - s_1_8 - 1000 r_1_4_8 >= -1001
t_1_4 - t_1_8 - 1000.000000 u_1_4_8 - 0.000000 s_1_8  + 2000.000000 r_1_4_8 > -992.654022
s_2_4 + s_2_8 + 1000 r_2_4_8 >= 2
- s_2_4 - s_2_8 - 1000 r_2_4_8 >= -1001
t_2_4 - t_2_8 - 1000.000000 u_2_4_8 - 0.000000 s_2_8  + 2000.000000 r_2_4_8 > -991.833610
s_1_4 + s_1_9 + 1000 r_1_4_9 >= 2
- s_1_4 - s_1_9 - 1000 r_1_4_9 >= -1001
t_1_4 - t_1_9 - 1000.000000 u_1_4_9 - 0.000000 s_1_9  + 2000.000000 r_1_4_9 > -987.471477
s_2_4 + s_2_9 + 1000 r_2_4_9 >= 2
- s_2_4 - s_2_9 - 1000 r_2_4_9 >= -1001
t_2_4 - t_2_9 - 1000.000000 u_2_4_9 - 0.000000 s_2_9  + 2000.000000 r_2_4_9 > -988.374280
s_1_4 + s_1_10 + 1000 r_1_4_10 >= 2
- s_1_4 - s_1_10 - 1000 r_1_4_10 >= -1001
t_1_4 - t_1_10 - 1000.000000 u_1_4_10 - 0.000000 s_1_10  + 2000.000000 r_1_4_10 > -991.908339
s_2_4 + s_2_10 + 1000 r_2_4_10 >= 2
- s_2_4 - s_2_10 - 1000 r_2_4_10 >= -1001
t_2_4 - t_2_10 - 1000.000000 u_2_4_10 - 0.000000 s_2_10  + 2000.000000 r_2_4_10 > -992.284480
s_1_4 + s_1_11 + 1000 r_1_4_11 >= 2
- s_1_4 - s_1_11 - 1000 r_1_4_11 >= -1001
t_1_4 - t_1_11 - 1000.000000 u_1_4_11 - 0.000000 s_1_11  + 2000.000000 r_1_4_11 > -988.361717
s_2_4 + s_2_11 + 1000 r_2_4_11 >= 2
- s_2_4 - s_2_11 - 1000 r_2_4_11 >= -1001
t_2_4 - t_2_11 - 1000.000000 u_2_4_11 - 0.000000 s_2_11  + 2000.000000 r_2_4_11 > -988.596922
t_1_12 - t_1_4 - 1000.000000 s_1_4  > -990.469724
t_1_12 - t_2_4 - 1000.000000 s_2_4  > -992.301238
t_2_12 - t_1_4 - 1000.000000 s_1_4  > -990.469724
t_2_12 - t_2_4 - 1000.000000 s_2_4  > -992.301238
s_1_5 + s_1_2 + 1000 r_1_2_5 >= 2
- s_1_5 - s_1_2 - 1000 r_1_2_5 >= -1001
t_1_5 - t_1_2 + 1000.000000 u_1_2_5 - 0.000000 s_1_2  + 2000.000000 r_1_2_5 > 6.350022
s_2_5 + s_2_2 + 1000 r_2_2_5 >= 2
- s_2_5 - s_2_2 - 1000 r_2_2_5 >= -1001
t_2_5 - t_2_2 + 1000.000000 u_2_2_5 - 0.000000 s_2_2  + 2000.000000 r_2_2_5 > 5.701824
s_1_5 + s_1_3 + 1000 r_1_3_5 >= 2
- s_1_5 - s_1_3 - 1000 r_1_3_5 >= -1001
t_1_5 - t_1_3 + 1000.000000 u_1_3_5 - 0.000000 s_1_3  + 2000.000000 r_1_3_5 > 6.400847
s_2_5 + s_2_3 + 1000 r_2_3_5 >= 2
- s_2_5 - s_2_3 - 1000 r_2_3_5 >= -1001
t_2_5 - t_2_3 + 1000.000000 u_2_3_5 - 0.000000 s_2_3  + 2000.000000 r_2_3_5 > 5.691906
s_1_5 + s_1_4 + 1000 r_1_4_5 >= 2
- s_1_5 - s_1_4 - 1000 r_1_4_5 >= -1001
t_1_5 - t_1_4 + 1000.000000 u_1_4_5 - 0.000000 s_1_4  + 2000.000000 r_1_4_5 > 9.530276
s_2_5 + s_2_4 + 1000 r_2_4_5 >= 2
- s_2_5 - s_2_4 - 1000 r_2_4_5 >= -1001
t_2_5 - t_2_4 + 1000.000000 u_2_4_5 - 0.000000 s_2_4  + 2000.000000 r_2_4_5 > 7.698762
s_1_5 + s_1_6 + 1000 r_1_5_6 >= 2
- s_1_5 - s_1_6 - 1000 r_1_5_6 >= -1001
t_1_5 - t_1_6 - 1000.000000 u_1_5_6 - 0.000000 s_1_6  + 2000.000000 r_1_5_6 > -991.975321
s_2_5 + s_2_6 + 1000 r_2_5_6 >= 2
- s_2_5 - s_2_6 - 1000 r_2_5_6 >= -1001
t_2_5 - t_2_6 - 1000.000000 u_2_5_6 - 0.000000 s_2_6  + 2000.000000 r_2_5_6 > -992.168770
s_1_5 + s_1_7 + 1000 r_1_5_7 >= 2
- s_1_5 - s_1_7 - 1000 r_1_5_7 >= -1001
t_1_5 - t_1_7 - 1000.000000 u_1_5_7 - 0.000000 s_1_7  + 2000.000000 r_1_5_7 > -992.707201
s_2_5 + s_2_7 + 1000 r_2_5_7 >= 2
- s_2_5 - s_2_7 - 1000 r_2_5_7 >= -1001
t_2_5 - t_2_7 - 1000.000000 u_2_5_7 - 0.000000 s_2_7  + 2000.000000 r_2_5_7 > -992.066854
s_1_5 + s_1_8 + 1000 r_1_5_8 >= 2
- s_1_5 - s_1_8 - 1000 r_1_5_8 >= -1001
t_1_5 - t_1_8 - 1000.000000 u_1_5_8 - 0.000000 s_1_8  + 2000.000000 r_1_5_8 > -992.654022
s_2_5 + s_2_8 + 1000 r_2_5_8 >= 2
- s_2_5 - s_2_8 - 1000 r_2_5_8 >= -1001
t_2_5 - t_2_8 - 1000.000000 u_2_5_8 - 0.000000 s_2_8  + 2000.000000 r_2_5_8 > -991.833610
s_1_5 + s_1_9 + 1000 r_1_5_9 >= 2
- s_1_5 - s_1_9 - 1000 r_1_5_9 >= -1001
t_1_5 - t_1_9 - 1000.000000 u_1_5_9 - 0.000000 s_1_9  + 2000.000000 r_1_5_9 > -987.471477
s_2_5 + s_2_9 + 1000 r_2_5_9 >= 2
- s_2_5 - s_2_9 - 1000 r_2_5_9 >= -1001
t_2_5 - t_2_9 - 1000.000000 u_2_5_9 - 0.000000 s_2_9  + 2000.000000 r_2_5_9 > -988.374280
s_1_5 + s_1_10 + 1000 r_1_5_10 >= 2
- s_1_5 - s_1_10 - 1000 r_1_5_10 >= -1001
t_1_5 - t_1_10 - 1000.000000 u_1_5_10 - 0.000000 s_1_10  + 2000.000000 r_1_5_10 > -991.908339
s_2_5 + s_2_10 + 1000 r_2_5_10 >= 2
- s_2_5 - s_2_10 - 1000 r_2_5_10 >= -1001
t_2_5 - t_2_10 - 1000.000000 u_2_5_10 - 0.000000 s_2_10  + 2000.000000 r_2_5_10 > -992.284480
s_1_5 + s_1_11 + 1000 r_1_5_11 >= 2
- s_1_5 - s_1_11 - 1000 r_1_5_11 >= -1001
t_1_5 - t_1_11 - 1000.000000 u_1_5_11 - 0.000000 s_1_11  + 2000.000000 r_1_5_11 > -988.361717
s_2_5 + s_2_11 + 1000 r_2_5_11 >= 2
- s_2_5 - s_2_11 - 1000 r_2_5_11 >= -1001
t_2_5 - t_2_11 - 1000.000000 u_2_5_11 - 0.000000 s_2_11  + 2000.000000 r_2_5_11 > -988.596922
t_1_12 - t_1_5 - 1000.000000 s_1_5  > -990.334797
t_1_12 - t_2_5 - 1000.000000 s_2_5  > -992.254042
t_2_12 - t_1_5 - 1000.000000 s_1_5  > -990.334797
t_2_12 - t_2_5 - 1000.000000 s_2_5  > -992.254042
s_1_6 + s_1_1 + 1000 r_1_1_6 >= 2
- s_1_6 - s_1_1 - 1000 r_1_1_6 >= -1001
t_1_6 - t_1_1 + 1000.000000 u_1_1_6 - 0.000000 s_1_1  + 2000.000000 r_1_1_6 > 1.952001
s_2_6 + s_2_1 + 1000 r_2_1_6 >= 2
- s_2_6 - s_2_1 - 1000 r_2_1_6 >= -1001
t_2_6 - t_2_1 + 1000.000000 u_2_1_6 - 0.000000 s_2_1  + 2000.000000 r_2_1_6 > 4.019298
s_1_6 + s_1_3 + 1000 r_1_3_6 >= 2
- s_1_6 - s_1_3 - 1000 r_1_3_6 >= -1001
t_1_6 - t_1_3 + 1000.000000 u_1_3_6 - 0.000000 s_1_3  + 2000.000000 r_1_3_6 > 6.400847
s_2_6 + s_2_3 + 1000 r_2_3_6 >= 2
- s_2_6 - s_2_3 - 1000 r_2_3_6 >= -1001
t_2_6 - t_2_3 + 1000.000000 u_2_3_6 - 0.000000 s_2_3  + 2000.000000 r_2_3_6 > 5.691906
s_1_6 + s_1_4 + 1000 r_1_4_6 >= 2
- s_1_6 - s_1_4 - 1000 r_1_4_6 >= -1001
t_1_6 - t_1_4 + 1000.000000 u_1_4_6 - 0.000000 s_1_4  + 2000.000000 r_1_4_6 > 9.530276
s_2_6 + s_2_4 + 1000 r_2_4_6 >= 2
- s_2_6 - s_2_4 - 1000 r_2_4_6 >= -1001
t_2_6 - t_2_4 + 1000.000000 u_2_4_6 - 0.000000 s_2_4  + 2000.000000 r_2_4_6 > 7.698762
s_1_6 + s_1_5 + 1000 r_1_5_6 >= 2
- s_1_6 - s_1_5 - 1000 r_1_5_6 >= -1001
t_1_6 - t_1_5 + 1000.000000 u_1_5_6 - 0.000000 s_1_5  + 2000.000000 r_1_5_6 > 9.665203
s_2_6 + s_2_5 + 1000 r_2_5_6 >= 2
- s_2_6 - s_2_5 - 1000 r_2_5_6 >= -1001
t_2_6 - t_2_5 + 1000.000000 u_2_5_6 - 0.000000 s_2_5  + 2000.000000 r_2_5_6 > 7.745958
s_1_6 + s_1_7 + 1000 r_1_6_7 >= 2
- s_1_6 - s_1_7 - 1000 r_1_6_7 >= -1001
t_1_6 - t_1_7 - 1000.000000 u_1_6_7 - 0.000000 s_1_7  + 2000.000000 r_1_6_7 > -992.707201
s_2_6 + s_2_7 + 1000 r_2_6_7 >= 2
- s_2_6 - s_2_7 - 1000 r_2_6_7 >= -1001
t_2_6 - t_2_7 - 1000.000000 u_2_6_7 - 0.000000 s_2_7  + 2000.000000 r_2_6_7 > -992.066854
t_1_8 - t_1_6 - 1000.000000 s_1_6  > -991.975321
t_1_8 - t_2_6 - 1000.000000 s_2_6  > -992.168770
t_2_8 - t_1_6 - 1000.000000 s_1_6  > -991.975321
t_2_8 - t_2_6 - 1000.000000 s_2_6  > -992.168770
s_1_6 + s_1_9 + 1000 r_1_6_9 >= 2
- s_1_6 - s_1_9 - 1000 r_1_6_9 >= -1001
t_1_6 - t_1_9 - 1000.000000 u_1_6_9 - 0.000000 s_1_9  + 2000.000000 r_1_6_9 > -987.471477
s_2_6 + s_2_9 + 1000 r_2_6_9 >= 2
- s_2_6 - s_2_9 - 1000 r_2_6_9 >= -1001
t_2_6 - t_2_9 - 1000.000000 u_2_6_9 - 0.000000 s_2_9  + 2000.000000 r_2_6_9 > -988.374280
s_1_7 + s_1_1 + 1000 r_1_1_7 >= 2
- s_1_7 - s_1_1 - 1000 r_1_1_7 >= -1001
t_1_7 - t_1_1 + 1000.000000 u_1_1_7 - 0.000000 s_1_1  + 2000.000000 r_1_1_7 > 1.952001
s_2_7 + s_2_1 + 1000 r_2_1_7 >= 2
- s_2_7 - s_2_1 - 1000 r_2_1_7 >= -1001
t_2_7 - t_2_1 + 1000.000000 u_2_1_7 - 0.000000 s_2_1  + 2000.000000 r_2_1_7 > 4.019298
s_1_7 + s_1_2 + 1000 r_1_2_7 >= 2
- s_1_7 - s_1_2 - 1000 r_1_2_7 >= -1001
t_1_7 - t_1_2 + 1000.000000 u_1_2_7 - 0.000000 s_1_2  + 2000.000000 r_1_2_7 > 6.350022
s_2_7 + s_2_2 + 1000 r_2_2_7 >= 2
- s_2_7 - s_2_2 - 1000 r_2_2_7 >= -1001
t_2_7 - t_2_2 + 1000.000000 u_2_2_7 - 0.000000 s_2_2  + 2000.000000 r_2_2_7 > 5.701824
s_1_7 + s_1_4 + 1000 r_1_4_7 >= 2
- s_1_7 - s_1_4 - 1000 r_1_4_7 >= -1001
t_1_7 - t_1_4 + 1000.000000 u_1_4_7 - 0.000000 s_1_4  + 2000.000000 r_1_4_7 > 9.530276
s_2_7 + s_2_4 + 1000 r_2_4_7 >= 2
- s_2_7 - s_2_4 - 1000 r_2_4_7 >= -1001
t_2_7 - t_2_4 + 1000.000000 u_2_4_7 - 0.000000 s_2_4  + 2000.000000 r_2_4_7 > 7.698762
s_1_7 + s_1_5 + 1000 r_1_5_7 >= 2
- s_1_7 - s_1_5 - 1000 r_1_5_7 >= -1001
t_1_7 - t_1_5 + 1000.000000 u_1_5_7 - 0.000000 s_1_5  + 2000.000000 r_1_5_7 > 9.665203
s_2_7 + s_2_5 + 1000 r_2_5_7 >= 2
- s_2_7 - s_2_5 - 1000 r_2_5_7 >= -1001
t_2_7 - t_2_5 + 1000.000000 u_2_5_7 - 0.000000 s_2_5  + 2000.000000 r_2_5_7 > 7.745958
s_1_7 + s_1_6 + 1000 r_1_6_7 >= 2
- s_1_7 - s_1_6 - 1000 r_1_6_7 >= -1001
t_1_7 - t_1_6 + 1000.000000 u_1_6_7 - 0.000000 s_1_6  + 2000.000000 r_1_6_7 > 8.024679
s_2_7 + s_2_6 + 1000 r_2_6_7 >= 2
- s_2_7 - s_2_6 - 1000 r_2_6_7 >= -1001
t_2_7 - t_2_6 + 1000.000000 u_2_6_7 - 0.000000 s_2_6  + 2000.000000 r_2_6_7 > 7.831230
s_1_7 + s_1_8 + 1000 r_1_7_8 >= 2
- s_1_7 - s_1_8 - 1000 r_1_7_8 >= -1001
t_1_7 - t_1_8 - 1000.000000 u_1_7_8 - 0.000000 s_1_8  + 2000.000000 r_1_7_8 > -992.654022
s_2_7 + s_2_8 + 1000 r_2_7_8 >= 2
- s_2_7 - s_2_8 - 1000 r_2_7_8 >= -1001
t_2_7 - t_2_8 - 1000.000000 u_2_7_8 - 0.000000 s_2_8  + 2000.000000 r_2_7_8 > -991.833610
t_1_9 - t_1_7 - 1000.000000 s_1_7  > -992.707201
t_1_9 - t_2_7 - 1000.000000 s_2_7  > -992.066854
t_2_9 - t_1_7 - 1000.000000 s_1_7  > -992.707201
t_2_9 - t_2_7 - 1000.000000 s_2_7  > -992.066854
s_1_7 + s_1_10 + 1000 r_1_7_10 >= 2
- s_1_7 - s_1_10 - 1000 r_1_7_10 >= -1001
t_1_7 - t_1_10 - 1000.000000 u_1_7_10 - 0.000000 s_1_10  + 2000.000000 r_1_7_10 > -991.908339
s_2_7 + s_2_10 + 1000 r_2_7_10 >= 2
- s_2_7 - s_2_10 - 1000 r_2_7_10 >= -1001
t_2_7 - t_2_10 - 1000.000000 u_2_7_10 - 0.000000 s_2_10  + 2000.000000 r_2_7_10 > -992.284480
s_1_7 + s_1_11 + 1000 r_1_7_11 >= 2
- s_1_7 - s_1_11 - 1000 r_1_7_11 >= -1001
t_1_7 - t_1_11 - 1000.000000 u_1_7_11 - 0.000000 s_1_11  + 2000.000000 r_1_7_11 > -988.361717
s_2_7 + s_2_11 + 1000 r_2_7_11 >= 2
- s_2_7 - s_2_11 - 1000 r_2_7_11 >= -1001
t_2_7 - t_2_11 - 1000.000000 u_2_7_11 - 0.000000 s_2_11  + 2000.000000 r_2_7_11 > -988.596922
s_1_8 + s_1_1 + 1000 r_1_1_8 >= 2
- s_1_8 - s_1_1 - 1000 r_1_1_8 >= -1001
t_1_8 - t_1_1 + 1000.000000 u_1_1_8 - 0.000000 s_1_1  + 2000.000000 r_1_1_8 > 1.952001
s_2_8 + s_2_1 + 1000 r_2_1_8 >= 2
- s_2_8 - s_2_1 - 1000 r_2_1_8 >= -1001
t_2_8 - t_2_1 + 1000.000000 u_2_1_8 - 0.000000 s_2_1  + 2000.000000 r_2_1_8 > 4.019298
s_1_8 + s_1_3 + 1000 r_1_3_8 >= 2
- s_1_8 - s_1_3 - 1000 r_1_3_8 >= -1001
t_1_8 - t_1_3 + 1000.000000 u_1_3_8 - 0.000000 s_1_3  + 2000.000000 r_1_3_8 > 6.400847
s_2_8 + s_2_3 + 1000 r_2_3_8 >= 2
- s_2_8 - s_2_3 - 1000 r_2_3_8 >= -1001
t_2_8 - t_2_3 + 1000.000000 u_2_3_8 - 0.000000 s_2_3  + 2000.000000 r_2_3_8 > 5.691906
s_1_8 + s_1_4 + 1000 r_1_4_8 >= 2
- s_1_8 - s_1_4 - 1000 r_1_4_8 >= -1001
t_1_8 - t_1_4 + 1000.000000 u_1_4_8 - 0.000000 s_1_4  + 2000.000000 r_1_4_8 > 9.530276
s_2_8 + s_2_4 + 1000 r_2_4_8 >= 2
- s_2_8 - s_2_4 - 1000 r_2_4_8 >= -1001
t_2_8 - t_2_4 + 1000.000000 u_2_4_8 - 0.000000 s_2_4  + 2000.000000 r_2_4_8 > 7.698762
s_1_8 + s_1_5 + 1000 r_1_5_8 >= 2
- s_1_8 - s_1_5 - 1000 r_1_5_8 >= -1001
t_1_8 - t_1_5 + 1000.000000 u_1_5_8 - 0.000000 s_1_5  + 2000.000000 r_1_5_8 > 9.665203
s_2_8 + s_2_5 + 1000 r_2_5_8 >= 2
- s_2_8 - s_2_5 - 1000 r_2_5_8 >= -1001
t_2_8 - t_2_5 + 1000.000000 u_2_5_8 - 0.000000 s_2_5  + 2000.000000 r_2_5_8 > 7.745958
s_1_8 + s_1_7 + 1000 r_1_7_8 >= 2
- s_1_8 - s_1_7 - 1000 r_1_7_8 >= -1001
t_1_8 - t_1_7 + 1000.000000 u_1_7_8 - 0.000000 s_1_7  + 2000.000000 r_1_7_8 > 7.292799
s_2_8 + s_2_7 + 1000 r_2_7_8 >= 2
- s_2_8 - s_2_7 - 1000 r_2_7_8 >= -1001
t_2_8 - t_2_7 + 1000.000000 u_2_7_8 - 0.000000 s_2_7  + 2000.000000 r_2_7_8 > 7.933146
s_1_8 + s_1_9 + 1000 r_1_8_9 >= 2
- s_1_8 - s_1_9 - 1000 r_1_8_9 >= -1001
t_1_8 - t_1_9 - 1000.000000 u_1_8_9 - 0.000000 s_1_9  + 2000.000000 r_1_8_9 > -987.471477
s_2_8 + s_2_9 + 1000 r_2_8_9 >= 2
- s_2_8 - s_2_9 - 1000 r_2_8_9 >= -1001
t_2_8 - t_2_9 - 1000.000000 u_2_8_9 - 0.000000 s_2_9  + 2000.000000 r_2_8_9 > -988.374280
t_1_10 - t_1_8 - 1000.000000 s_1_8  > -992.654022
t_1_10 - t_2_8 - 1000.000000 s_2_8  > -991.833610
t_2_10 - t_1_8 - 1000.000000 s_1_8  > -992.654022
t_2_10 - t_2_8 - 1000.000000 s_2_8  > -991.833610
s_1_9 + s_1_1 + 1000 r_1_1_9 >= 2
- s_1_9 - s_1_1 - 1000 r_1_1_9 >= -1001
t_1_9 - t_1_1 + 1000.000000 u_1_1_9 - 0.000000 s_1_1  + 2000.000000 r_1_1_9 > 1.952001
s_2_9 + s_2_1 + 1000 r_2_1_9 >= 2
- s_2_9 - s_2_1 - 1000 r_2_1_9 >= -1001
t_2_9 - t_2_1 + 1000.000000 u_2_1_9 - 0.000000 s_2_1  + 2000.000000 r_2_1_9 > 4.019298
s_1_9 + s_1_2 + 1000 r_1_2_9 >= 2
- s_1_9 - s_1_2 - 1000 r_1_2_9 >= -1001
t_1_9 - t_1_2 + 1000.000000 u_1_2_9 - 0.000000 s_1_2  + 2000.000000 r_1_2_9 > 6.350022
s_2_9 + s_2_2 + 1000 r_2_2_9 >= 2
- s_2_9 - s_2_2 - 1000 r_2_2_9 >= -1001
t_2_9 - t_2_2 + 1000.000000 u_2_2_9 - 0.000000 s_2_2  + 2000.000000 r_2_2_9 > 5.701824
s_1_9 + s_1_4 + 1000 r_1_4_9 >= 2
- s_1_9 - s_1_4 - 1000 r_1_4_9 >= -1001
t_1_9 - t_1_4 + 1000.000000 u_1_4_9 - 0.000000 s_1_4  + 2000.000000 r_1_4_9 > 9.530276
s_2_9 + s_2_4 + 1000 r_2_4_9 >= 2
- s_2_9 - s_2_4 - 1000 r_2_4_9 >= -1001
t_2_9 - t_2_4 + 1000.000000 u_2_4_9 - 0.000000 s_2_4  + 2000.000000 r_2_4_9 > 7.698762
s_1_9 + s_1_5 + 1000 r_1_5_9 >= 2
- s_1_9 - s_1_5 - 1000 r_1_5_9 >= -1001
t_1_9 - t_1_5 + 1000.000000 u_1_5_9 - 0.000000 s_1_5  + 2000.000000 r_1_5_9 > 9.665203
s_2_9 + s_2_5 + 1000 r_2_5_9 >= 2
- s_2_9 - s_2_5 - 1000 r_2_5_9 >= -1001
t_2_9 - t_2_5 + 1000.000000 u_2_5_9 - 0.000000 s_2_5  + 2000.000000 r_2_5_9 > 7.745958
s_1_9 + s_1_6 + 1000 r_1_6_9 >= 2
- s_1_9 - s_1_6 - 1000 r_1_6_9 >= -1001
t_1_9 - t_1_6 + 1000.000000 u_1_6_9 - 0.000000 s_1_6  + 2000.000000 r_1_6_9 > 8.024679
s_2_9 + s_2_6 + 1000 r_2_6_9 >= 2
- s_2_9 - s_2_6 - 1000 r_2_6_9 >= -1001
t_2_9 - t_2_6 + 1000.000000 u_2_6_9 - 0.000000 s_2_6  + 2000.000000 r_2_6_9 > 7.831230
s_1_9 + s_1_8 + 1000 r_1_8_9 >= 2
- s_1_9 - s_1_8 - 1000 r_1_8_9 >= -1001
t_1_9 - t_1_8 + 1000.000000 u_1_8_9 - 0.000000 s_1_8  + 2000.000000 r_1_8_9 > 7.345978
s_2_9 + s_2_8 + 1000 r_2_8_9 >= 2
- s_2_9 - s_2_8 - 1000 r_2_8_9 >= -1001
t_2_9 - t_2_8 + 1000.000000 u_2_8_9 - 0.000000 s_2_8  + 2000.000000 r_2_8_9 > 8.166390
s_1_9 + s_1_10 + 1000 r_1_9_10 >= 2
- s_1_9 - s_1_10 - 1000 r_1_9_10 >= -1001
t_1_9 - t_1_10 - 1000.000000 u_1_9_10 - 0.000000 s_1_10  + 2000.000000 r_1_9_10 > -991.908339
s_2_9 + s_2_10 + 1000 r_2_9_10 >= 2
- s_2_9 - s_2_10 - 1000 r_2_9_10 >= -1001
t_2_9 - t_2_10 - 1000.000000 u_2_9_10 - 0.000000 s_2_10  + 2000.000000 r_2_9_10 > -992.284480
s_1_9 + s_1_11 + 1000 r_1_9_11 >= 2
- s_1_9 - s_1_11 - 1000 r_1_9_11 >= -1001
t_1_9 - t_1_11 - 1000.000000 u_1_9_11 - 0.000000 s_1_11  + 2000.000000 r_1_9_11 > -988.361717
s_2_9 + s_2_11 + 1000 r_2_9_11 >= 2
- s_2_9 - s_2_11 - 1000 r_2_9_11 >= -1001
t_2_9 - t_2_11 - 1000.000000 u_2_9_11 - 0.000000 s_2_11  + 2000.000000 r_2_9_11 > -988.596922
t_1_12 - t_1_9 - 1000.000000 s_1_9  > -987.471477
t_1_12 - t_2_9 - 1000.000000 s_2_9  > -988.374280
t_2_12 - t_1_9 - 1000.000000 s_1_9  > -987.471477
t_2_12 - t_2_9 - 1000.000000 s_2_9  > -988.374280
s_1_10 + s_1_1 + 1000 r_1_1_10 >= 2
- s_1_10 - s_1_1 - 1000 r_1_1_10 >= -1001
t_1_10 - t_1_1 + 1000.000000 u_1_1_10 - 0.000000 s_1_1  + 2000.000000 r_1_1_10 > 1.952001
s_2_10 + s_2_1 + 1000 r_2_1_10 >= 2
- s_2_10 - s_2_1 - 1000 r_2_1_10 >= -1001
t_2_10 - t_2_1 + 1000.000000 u_2_1_10 - 0.000000 s_2_1  + 2000.000000 r_2_1_10 > 4.019298
s_1_10 + s_1_3 + 1000 r_1_3_10 >= 2
- s_1_10 - s_1_3 - 1000 r_1_3_10 >= -1001
t_1_10 - t_1_3 + 1000.000000 u_1_3_10 - 0.000000 s_1_3  + 2000.000000 r_1_3_10 > 6.400847
s_2_10 + s_2_3 + 1000 r_2_3_10 >= 2
- s_2_10 - s_2_3 - 1000 r_2_3_10 >= -1001
t_2_10 - t_2_3 + 1000.000000 u_2_3_10 - 0.000000 s_2_3  + 2000.000000 r_2_3_10 > 5.691906
s_1_10 + s_1_4 + 1000 r_1_4_10 >= 2
- s_1_10 - s_1_4 - 1000 r_1_4_10 >= -1001
t_1_10 - t_1_4 + 1000.000000 u_1_4_10 - 0.000000 s_1_4  + 2000.000000 r_1_4_10 > 9.530276
s_2_10 + s_2_4 + 1000 r_2_4_10 >= 2
- s_2_10 - s_2_4 - 1000 r_2_4_10 >= -1001
t_2_10 - t_2_4 + 1000.000000 u_2_4_10 - 0.000000 s_2_4  + 2000.000000 r_2_4_10 > 7.698762
s_1_10 + s_1_5 + 1000 r_1_5_10 >= 2
- s_1_10 - s_1_5 - 1000 r_1_5_10 >= -1001
t_1_10 - t_1_5 + 1000.000000 u_1_5_10 - 0.000000 s_1_5  + 2000.000000 r_1_5_10 > 9.665203
s_2_10 + s_2_5 + 1000 r_2_5_10 >= 2
- s_2_10 - s_2_5 - 1000 r_2_5_10 >= -1001
t_2_10 - t_2_5 + 1000.000000 u_2_5_10 - 0.000000 s_2_5  + 2000.000000 r_2_5_10 > 7.745958
s_1_10 + s_1_7 + 1000 r_1_7_10 >= 2
- s_1_10 - s_1_7 - 1000 r_1_7_10 >= -1001
t_1_10 - t_1_7 + 1000.000000 u_1_7_10 - 0.000000 s_1_7  + 2000.000000 r_1_7_10 > 7.292799
s_2_10 + s_2_7 + 1000 r_2_7_10 >= 2
- s_2_10 - s_2_7 - 1000 r_2_7_10 >= -1001
t_2_10 - t_2_7 + 1000.000000 u_2_7_10 - 0.000000 s_2_7  + 2000.000000 r_2_7_10 > 7.933146
s_1_10 + s_1_9 + 1000 r_1_9_10 >= 2
- s_1_10 - s_1_9 - 1000 r_1_9_10 >= -1001
t_1_10 - t_1_9 + 1000.000000 u_1_9_10 - 0.000000 s_1_9  + 2000.000000 r_1_9_10 > 12.528523
s_2_10 + s_2_9 + 1000 r_2_9_10 >= 2
- s_2_10 - s_2_9 - 1000 r_2_9_10 >= -1001
t_2_10 - t_2_9 + 1000.000000 u_2_9_10 - 0.000000 s_2_9  + 2000.000000 r_2_9_10 > 11.625720
t_1_11 - t_1_10 - 1000.000000 s_1_10  > -991.908339
t_1_11 - t_2_10 - 1000.000000 s_2_10  > -992.284480
t_2_11 - t_1_10 - 1000.000000 s_1_10  > -991.908339
t_2_11 - t_2_10 - 1000.000000 s_2_10  > -992.284480
s_1_11 + s_1_1 + 1000 r_1_1_11 >= 2
- s_1_11 - s_1_1 - 1000 r_1_1_11 >= -1001
t_1_11 - t_1_1 + 1000.000000 u_1_1_11 - 0.000000 s_1_1  + 2000.000000 r_1_1_11 > 1.952001
s_2_11 + s_2_1 + 1000 r_2_1_11 >= 2
- s_2_11 - s_2_1 - 1000 r_2_1_11 >= -1001
t_2_11 - t_2_1 + 1000.000000 u_2_1_11 - 0.000000 s_2_1  + 2000.000000 r_2_1_11 > 4.019298
s_1_11 + s_1_3 + 1000 r_1_3_11 >= 2
- s_1_11 - s_1_3 - 1000 r_1_3_11 >= -1001
t_1_11 - t_1_3 + 1000.000000 u_1_3_11 - 0.000000 s_1_3  + 2000.000000 r_1_3_11 > 6.400847
s_2_11 + s_2_3 + 1000 r_2_3_11 >= 2
- s_2_11 - s_2_3 - 1000 r_2_3_11 >= -1001
t_2_11 - t_2_3 + 1000.000000 u_2_3_11 - 0.000000 s_2_3  + 2000.000000 r_2_3_11 > 5.691906
s_1_11 + s_1_4 + 1000 r_1_4_11 >= 2
- s_1_11 - s_1_4 - 1000 r_1_4_11 >= -1001
t_1_11 - t_1_4 + 1000.000000 u_1_4_11 - 0.000000 s_1_4  + 2000.000000 r_1_4_11 > 9.530276
s_2_11 + s_2_4 + 1000 r_2_4_11 >= 2
- s_2_11 - s_2_4 - 1000 r_2_4_11 >= -1001
t_2_11 - t_2_4 + 1000.000000 u_2_4_11 - 0.000000 s_2_4  + 2000.000000 r_2_4_11 > 7.698762
s_1_11 + s_1_5 + 1000 r_1_5_11 >= 2
- s_1_11 - s_1_5 - 1000 r_1_5_11 >= -1001
t_1_11 - t_1_5 + 1000.000000 u_1_5_11 - 0.000000 s_1_5  + 2000.000000 r_1_5_11 > 9.665203
s_2_11 + s_2_5 + 1000 r_2_5_11 >= 2
- s_2_11 - s_2_5 - 1000 r_2_5_11 >= -1001
t_2_11 - t_2_5 + 1000.000000 u_2_5_11 - 0.000000 s_2_5  + 2000.000000 r_2_5_11 > 7.745958
s_1_11 + s_1_7 + 1000 r_1_7_11 >= 2
- s_1_11 - s_1_7 - 1000 r_1_7_11 >= -1001
t_1_11 - t_1_7 + 1000.000000 u_1_7_11 - 0.000000 s_1_7  + 2000.000000 r_1_7_11 > 7.292799
s_2_11 + s_2_7 + 1000 r_2_7_11 >= 2
- s_2_11 - s_2_7 - 1000 r_2_7_11 >= -1001
t_2_11 - t_2_7 + 1000.000000 u_2_7_11 - 0.000000 s_2_7  + 2000.000000 r_2_7_11 > 7.933146
s_1_11 + s_1_9 + 1000 r_1_9_11 >= 2
- s_1_11 - s_1_9 - 1000 r_1_9_11 >= -1001
t_1_11 - t_1_9 + 1000.000000 u_1_9_11 - 0.000000 s_1_9  + 2000.000000 r_1_9_11 > 12.528523
s_2_11 + s_2_9 + 1000 r_2_9_11 >= 2
- s_2_11 - s_2_9 - 1000 r_2_9_11 >= -1001
t_2_11 - t_2_9 + 1000.000000 u_2_9_11 - 0.000000 s_2_9  + 2000.000000 r_2_9_11 > 11.625720
t_1_12 - t_1_11 - 1000.000000 s_1_11  > -988.361717
t_1_12 - t_2_11 - 1000.000000 s_2_11  > -988.596922
t_2_12 - t_1_11 - 1000.000000 s_1_11  > -988.361717
t_2_12 - t_2_11 - 1000.000000 s_2_11  > -988.596922
Binary
s_1_1
s_2_1
s_1_2
s_2_2
s_1_3
s_2_3
s_1_4
s_2_4
s_1_5
s_2_5
s_1_6
s_2_6
s_1_7
s_2_7
s_1_8
s_2_8
s_1_9
s_2_9
s_1_10
s_2_10
s_1_11
s_2_11
s_1_12
s_2_12
u_1_1_2
r_1_1_2
u_2_1_2
r_2_1_2
u_1_1_3
r_1_1_3
u_2_1_3
r_2_1_3
u_1_1_4
r_1_1_4
u_2_1_4
r_2_1_4
u_1_1_6
r_1_1_6
u_2_1_6
r_2_1_6
u_1_1_7
r_1_1_7
u_2_1_7
r_2_1_7
u_1_1_8
r_1_1_8
u_2_1_8
r_2_1_8
u_1_1_9
r_1_1_9
u_2_1_9
r_2_1_9
u_1_1_10
r_1_1_10
u_2_1_10
r_2_1_10
u_1_1_11
r_1_1_11
u_2_1_11
r_2_1_11
u_1_2_3
r_1_2_3
u_2_2_3
r_2_2_3
u_1_2_4
r_1_2_4
u_2_2_4
r_2_2_4
u_1_2_5
r_1_2_5
u_2_2_5
r_2_2_5
u_1_2_7
r_1_2_7
u_2_2_7
r_2_2_7
u_1_2_9
r_1_2_9
u_2_2_9
r_2_2_9
u_1_3_4
r_1_3_4
u_2_3_4
r_2_3_4
u_1_3_5
r_1_3_5
u_2_3_5
r_2_3_5
u_1_3_6
r_1_3_6
u_2_3_6
r_2_3_6
u_1_3_8
r_1_3_8
u_2_3_8
r_2_3_8
u_1_3_10
r_1_3_10
u_2_3_10
r_2_3_10
u_1_3_11
r_1_3_11
u_2_3_11
r_2_3_11
u_1_4_5
r_1_4_5
u_2_4_5
r_2_4_5
u_1_4_6
r_1_4_6
u_2_4_6
r_2_4_6
u_1_4_7
r_1_4_7
u_2_4_7
r_2_4_7
u_1_4_8
r_1_4_8
u_2_4_8
r_2_4_8
u_1_4_9
r_1_4_9
u_2_4_9
r_2_4_9
u_1_4_10
r_1_4_10
u_2_4_10
r_2_4_10
u_1_4_11
r_1_4_11
u_2_4_11
r_2_4_11
u_1_5_6
r_1_5_6
u_2_5_6
r_2_5_6
u_1_5_7
r_1_5_7
u_2_5_7
r_2_5_7
u_1_5_8
r_1_5_8
u_2_5_8
r_2_5_8
u_1_5_9
r_1_5_9
u_2_5_9
r_2_5_9
u_1_5_10
r_1_5_10
u_2_5_10
r_2_5_10
u_1_5_11
r_1_5_11
u_2_5_11
r_2_5_11
u_1_6_7
r_1_6_7
u_2_6_7
r_2_6_7
u_1_6_9
r_1_6_9
u_2_6_9
r_2_6_9
u_1_7_8
r_1_7_8
u_2_7_8
r_2_7_8
u_1_7_10
r_1_7_10
u_2_7_10
r_2_7_10
u_1_7_11
r_1_7_11
u_2_7_11
r_2_7_11
u_1_8_9
r_1_8_9
u_2_8_9
r_2_8_9
u_1_9_10
r_1_9_10
u_2_9_10
r_2_9_10
u_1_9_11
r_1_9_11
u_2_9_11
r_2_9_11

End
